[VALIDATOR STDOUT]
Checking plan: /home/jfan5/Safety-gen/runs/benchmark/optic/ferry_20260201_171235/ferry/optic_results/ferry-l26-c14-s26001.plan
Plan executed successfully - checking goal
Plan valid
Final value: 56 

Successful plans:
Value: 56
 /home/jfan5/Safety-gen/runs/benchmark/optic/ferry_20260201_171235/ferry/optic_results/ferry-l26-c14-s26001.plan 56
